letting n_nurses=25
letting n_days=7
letting n_shift_types=4
letting max_covers=14
letting t_covers=87
letting covers=[13,0,2,0,2,0,13,0,3,14,0,0,8,0,2,0,6,0,1,0,2,0,10,0,2,9,0,0]
letting prefes=[1,4,4,4,1,1,3,1,4,1,1,1,1,1,3,1,1,1,3,1,1,4,4,4,4,1,1,1,1,4,4,4,2,4,1,1,1,1,1,1,2,4,1,1,2,4,1,1,1,4,4,4,1,1,1,1,1,1,1,1,1,1,1,1,1,1,1,1,1,1,1,1,1,1,1,1,1,1,1,1,1,1,1,1,1,4,4,4,1,1,1,1,1,1,1,1,1,1,1,1,1,1,1,1,1,4,4,4,1,1,1,1,1,1,1,1,1,1,2,3,1,1,1,4,1,1,2,3,1,1,2,3,1,1,1,1,1,1,1,4,1,4,4,4,1,1,3,1,1,1,2,1,1,1,3,1,1,1,3,1,1,4,4,4,1,1,2,1,1,4,4,4,1,1,1,1,4,1,1,1,1,1,1,1,1,1,1,1,1,4,4,4,4,1,1,1,2,4,4,4,1,1,1,1,1,2,1,4,1,1,1,1,1,1,1,1,2,4,4,4,1,2,1,4,2,4,4,4,1,1,1,3,1,2,1,4,1,1,1,3,1,1,1,3,2,4,4,4,1,2,1,4,1,4,4,4,2,4,1,1,1,1,2,4,2,4,1,1,2,4,1,1,1,4,4,4,1,1,2,4,1,1,1,1,2,1,1,1,1,1,1,1,2,1,1,1,2,1,1,1,1,1,1,1,1,1,1,1,1,4,4,4,1,1,1,1,4,1,1,1,1,1,1,1,1,1,1,1,1,4,4,4,4,1,1,1,1,4,4,4,1,1,1,1,1,1,1,1,1,1,1,1,1,1,1,1,1,4,4,4,1,1,1,1,2,4,4,4,1,1,2,1,1,2,1,1,1,1,2,1,1,1,2,1,2,4,4,4,1,2,1,1,1,4,4,4,1,1,1,3,1,1,1,1,1,1,1,3,1,1,1,3,1,4,4,4,1,1,1,1,1,4,4,4,1,1,1,1,4,1,1,1,1,1,1,1,1,1,1,1,1,4,4,4,4,1,1,1,1,4,4,4,1,1,1,3,4,1,1,1,1,1,1,3,1,1,1,3,1,4,4,4,4,1,1,1,2,4,4,4,1,1,1,1,1,2,1,1,1,1,1,1,1,1,1,1,2,4,4,4,1,2,1,1,1,1,1,1,1,4,1,1,1,1,2,4,1,4,1,1,1,4,1,1,1,1,1,1,1,1,2,4,1,4,4,4,1,1,1,3,1,1,1,1,1,1,1,3,1,1,1,3,1,4,4,4,1,1,1,1,1,4,4,4,1,1,1,1,1,1,1,1,1,1,1,1,1,1,1,1,1,4,4,4,1,1,1,1,1,4,4,4,1,4,1,1,1,1,1,1,1,4,1,1,1,4,1,1,1,4,4,4,1,1,1,1,1,4,4,4,2,1,1,1,1,1,2,1,2,1,1,1,2,1,1,1,1,4,4,4,1,1,2,1,1,1,1,1,2,1,2,1,1,1,1,1,2,1,2,1,2,1,2,1,1,1,1,1,1,1,1,1,2,4,4,4,1,4,1,1,1,2,2,1,1,4,1,1,1,4,1,1,2,4,4,4,1,2,2,1]
letting ub =  201
